benchmark_str_length/p2_10_5-1.dzn
Alphabet = {A,C,G,T};
ns = 10;
nc = 5;
sl = 5;
neighbours = [| I(G),I(A),I(T),I(C),Null | I(T),I(T),I(T),I(C),Null | I(C),I(T),I(G),I(C),Null | I(C),I(T),Null,Null,Null | I(G),I(A),I(C),Null,Null | I(G),I(T),I(T),I(C),I(T) | I(A),I(A),Null,Null,Null | I(C),I(T),I(C),I(A),Null | I(G),I(C),Null,Null,Null | I(G),I(A),I(G),I(A),I(A) |];
