benchmark_str_length/p2_10_5-1.txt
{
	"num_strings": 10,
	"alphabet": "ACGT",
	"strings": [
		"GATC",
		"TTTC",
		"CTGC",
		"CT",
		"GAC",
		"GTTCT",
		"AA",
		"CTCA",
		"GC",
		"GAGAA"
	],
	"str_length":[4,4,4,2,3,5,2,4,2,5]
}